

(assert (forall ((N Int) (TSTEPS Int) (t Int))
  (=>
    (and
      (not (or (exists ((j_0 Int)(i_0 Int)(i_1 Int)(j_1 Int)) (and (<= 1 j_0) (<= j_0 (- N 2)) (<= 1 i_1) (<= i_1 (- N 2)) (or (and (= (- i_0 1) i_1) (= j_0 j_1)) (and (= (+ j_0 1) j_1) (= (- i_0 1) i_1)) (and (= i_0 i_1) (= j_0 j_1)) (and (= (- i_0 1) i_1) (= (- j_0 1) j_1)) (and (= (+ j_0 1) j_1) (= (+ i_0 1) i_1)) (and (= j_0 j_1) (= (+ i_0 1) i_1)) (and (= (- j_0 1) j_1) (= (+ i_0 1) i_1)) (and (= (+ j_0 1) j_1) (= i_0 i_1))) (<= 1 j_1) (<= j_1 (- N 2)) (<= 1 i_0) (<= i_0 (- N 2)))) (exists ((j_0 Int)(i_0 Int)(i_1 Int)(j_1 Int)) (and (<= 1 j_0) (<= j_0 (- N 2)) (<= 1 i_1) (<= i_1 (- N 2)) (<= 1 j_1) (<= j_1 (- N 2)) (or (and (= j_0 (- j_1 1)) (= i_0 (+ i_1 1))) (and (= i_0 (+ i_1 1)) (= j_0 j_1)) (and (= i_0 i_1) (= j_0 j_1)) (and (= j_0 (+ j_1 1)) (= i_0 (- i_1 1))) (and (= j_0 j_1) (= i_0 (- i_1 1))) (and (= i_0 i_1) (= j_0 (+ j_1 1))) (and (= j_0 (- j_1 1)) (= i_0 (- i_1 1))) (and (= i_0 (+ i_1 1)) (= j_0 (+ j_1 1)))) (<= 1 i_0) (<= i_0 (- N 2)))) (exists ((j_0 Int)(i_0 Int)(i_1 Int)(j_1 Int)) (and (<= 1 j_0) (<= j_0 (- N 2)) (<= 1 i_1) (<= i_1 (- N 2)) (<= 1 j_1) (<= j_1 (- N 2)) (or (and (= j_0 (- j_1 1)) (= i_0 i_1)) (and (= i_0 i_1) (= (- j_0 1) j_1)) (and (= i_0 i_1) (= j_0 j_1))) (<= 1 i_0) (<= i_0 (- N 2)))) (exists ((j_0 Int)(i_0 Int)(i_1 Int)(j_1 Int)) (and (<= 1 j_0) (<= j_0 (- N 2)) (<= 1 i_1) (<= i_1 (- N 2)) (<= 1 j_1) (<= j_1 (- N 2)) (= i_0 i_1) (= j_0 j_1) (<= 1 i_0) (<= i_0 (- N 2))))))
      (<= 2 (- N 2))
      (<= 1 (- TSTEPS 2))
      (<= 0 t)
      (<= (+ t 1) (- TSTEPS 2))
    )
    false
  )
))

(check-sat)